RT is False
Default write of storage_offers_DA.csv just to have a file (but constraint should be inactive)
Reading model...
...model read.
creating competitive generators file...
...competitive generators recorded.
Loading data...
.. day-ahead data with real-time VRE data read.
Compiling instance...
...instance created.
Creating Offer Mitigation (model will solve as dispatch if TRUE)...
Solving...

Welcome to IBM(R) ILOG(R) CPLEX(R) Interactive Optimizer 12.9.0.0
  with Simplex, Mixed Integer & Barrier Optimizers
5725-A06 5725-A29 5724-Y48 5724-Y49 5724-Y54 5724-Y55 5655-Y21
Copyright IBM Corp. 1988, 2019.  All Rights Reserved.

Type 'help' for a list of available commands.
Type 'help' followed by a command name for more
information on commands.

CPLEX> Logfile 'cplex.log' closed.
Logfile 'C:\Users\llavin\Desktop\test919\logs\tmp9371xvee.cplex.log' open.
CPLEX> New value for parallel optimization mode: -1
CPLEX> New value for mixed integer optimality gap tolerance: 0.01
CPLEX> New value for integrality tolerance: 1e-09
CPLEX> New value for feasibility tolerance: 0.01
CPLEX> New value for deterministic time limit in ticks: 75000
CPLEX> Problem 'C:\Users\llavin\Desktop\test919\logs\tmp4a329kz8.pyomo.lp' read.
Read time = 0.06 sec. (3.04 ticks)
CPLEX> Problem name         : C:\Users\llavin\Desktop\test919\logs\tmp4a329kz8.pyomo.lp
Objective sense      : Minimize
Variables            :   26081  [Nneg: 1,  Box: 21616,  Free: 4464]
Objective nonzeros   :    2496
Linear constraints   :   27515  [Less: 14006,  Greater: 4416,  Equal: 9093]
  Nonzeros           :   89219
  RHS nonzeros       :   12271

Variables            : Min LB: -5000.000        Max UB: 1000000.       
Objective nonzeros   : Min   : 15.73158         Max   : 124.0997       
Linear constraints   :
  Nonzeros           : Min   : 0.8500000        Max   : 3000.000       
  RHS nonzeros       : Min   : 0.4083333        Max   : 5000.000       
CPLEX> CPXPARAM_Parallel                                -1
CPXPARAM_Simplex_Tolerances_Feasibility          0.01
CPXPARAM_DetTimeLimit                            75000
CPXPARAM_MIP_Tolerances_MIPGap                   0.01
CPXPARAM_MIP_Tolerances_Integrality              1.0000000000000001e-09
Parallel mode: opportunistic, using up to 32 threads for concurrent optimization.
Tried aggregator 1 time.
LP Presolve eliminated 21377 rows and 15487 columns.
Aggregator did 751 substitutions.
Reduced LP has 5387 rows, 9843 columns, and 31778 nonzeros.
Presolve time = 0.06 sec. (30.21 ticks)
Symmetry aggregator did 5563 additional substitutions.

Iteration log . . .
Iteration:     1   Dual objective     =             0.000000
Perturbation started.
Iteration:   101   Dual objective     =             0.000000
Iteration:   333   Dual objective     =             1.292118
Iteration:   616   Dual objective     =             1.983452
Iteration:   877   Dual objective     =             2.136381
Iteration:  1086   Dual objective     =             2.254357
Iteration:  1358   Dual objective     =             2.299889
Iteration:  1605   Dual objective     =             2.328019
Iteration:  1829   Dual objective     =             2.352955
Iteration:  2032   Dual objective     =             2.375208
Iteration:  2221   Dual objective     =             2.389499
Iteration:  2503   Dual objective     =         13304.190825
Iteration:  2895   Dual objective     =         19278.476283
Removing perturbation.

Dual crossover.
  Dual:  Fixing 1 variable.
Using devex.

Primal simplex solved model.


Primal simplex - Optimal:  Objective =  2.0020491496e+04
Solution time =    0.16 sec.  Iterations = 1635 (1178)
Deterministic time = 80.32 ticks  (514.85 ticks/sec)

CPLEX> Solution written to file 'C:\Users\llavin\Desktop\test919\logs\tmpe_czhalm.cplex.sol'.
CPLEX> Exporting results... 
...storage offer mitigation file created
Converting model to MPEC...
...converted
NOTE: initial MIP solve with only storage competitive to get feasible solution
Solving...

Welcome to IBM(R) ILOG(R) CPLEX(R) Interactive Optimizer 12.9.0.0
  with Simplex, Mixed Integer & Barrier Optimizers
5725-A06 5725-A29 5724-Y48 5724-Y49 5724-Y54 5724-Y55 5655-Y21
Copyright IBM Corp. 1988, 2019.  All Rights Reserved.

Type 'help' for a list of available commands.
Type 'help' followed by a command name for more
information on commands.

CPLEX> Logfile 'cplex.log' closed.
Logfile 'C:\Users\llavin\Desktop\test919\logs\tmpvy9cems9.cplex.log' open.
CPLEX> New value for parallel optimization mode: -1
CPLEX> New value for mixed integer optimality gap tolerance: 0.01
CPLEX> New value for integrality tolerance: 1e-09
CPLEX> New value for feasibility tolerance: 0.01
CPLEX> New value for deterministic time limit in ticks: 75000
CPLEX> Problem 'C:\Users\llavin\Desktop\test919\logs\tmpgu73cfb4.pyomo.lp' read.
Read time = 0.27 sec. (14.78 ticks)
CPLEX> Problem name         : C:\Users\llavin\Desktop\test919\logs\tmpgu73cfb4.pyomo.lp
Objective sense      : Maximize
Variables            :   53805  [Nneg: 1,  Box: 22000,  Free: 4464,
                                 Binary: 27340]
Objective nonzeros   :    9029
Linear constraints   :  123205  [Less: 41346,  Greater: 59096,  Equal: 22763]
  Nonzeros           :  291753
  RHS nonzeros       :   67491

Variables            : Min LB: -5000.000        Max UB: 1000000.       
Objective nonzeros   : Min   : 0.4083333        Max   : 2500.000       
Linear constraints   :
  Nonzeros           : Min   : 0.4083333        Max   : 1000000.       
  RHS nonzeros       : Min   : 0.4083333        Max   : 1000000.       
CPLEX> CPXPARAM_Parallel                                -1
CPXPARAM_Simplex_Tolerances_Feasibility          0.01
CPXPARAM_DetTimeLimit                            75000
CPXPARAM_MIP_Tolerances_MIPGap                   0.01
CPXPARAM_MIP_Tolerances_Integrality              1.0000000000000001e-09
Tried aggregator 3 times.
MIP Presolve eliminated 88649 rows and 18973 columns.
MIP Presolve added 3374 rows and 0 columns.
MIP Presolve modified 24874 coefficients.
Aggregator did 12981 substitutions.
Reduced MIP has 24949 rows, 21295 columns, and 71166 nonzeros.
Reduced MIP has 8420 binaries, 0 generals, 0 SOSs, and 0 indicators.
Presolve time = 0.30 sec. (173.53 ticks)
Probing fixed 394 vars, tightened 2890 bounds.
Probing time = 1.25 sec. (906.85 ticks)
Tried aggregator 2 times.
MIP Presolve eliminated 886 rows and 791 columns.
MIP Presolve modified 2217 coefficients.
Aggregator did 41 substitutions.
Reduced MIP has 24022 rows, 20463 columns, and 68470 nonzeros.
Reduced MIP has 8025 binaries, 0 generals, 0 SOSs, and 0 indicators.
Presolve time = 0.09 sec. (69.14 ticks)
Probing time = 0.05 sec. (15.88 ticks)
Clique table members: 6454.
MIP emphasis: balance optimality and feasibility.
MIP search method: dynamic search.
Parallel mode: opportunistic, using up to 32 threads.
Root relaxation solution time = 0.34 sec. (267.68 ticks)

        Nodes                                         Cuts/
   Node  Left     Objective  IInf  Best Integer    Best Bound    ItCnt     Gap

      0     0        0.0000  1537                      0.0000     6566         
*     0+    0                            0.0000        0.0000             0.00%
      0     0        cutoff              0.0000        0.0000     6566    0.00%
Elapsed time = 3.11 sec. (2164.42 ticks, tree = 0.01 MB, solutions = 1)

Root node processing (before b&c):
  Real time             =    3.13 sec. (2166.37 ticks)
Parallel b&c, 32 threads:
  Real time             =    0.00 sec. (0.00 ticks)
  Sync time (average)   =    0.00 sec.
  Wait time (average)   =    0.00 sec.
                          ------------
Total (root+branch&cut) =    3.13 sec. (2166.37 ticks)

Solution pool: 1 solution saved.

MIP - Integer optimal solution:  Objective =  1.6216290533e-09
Solution time =    3.14 sec.  Iterations = 6566  Nodes = 0
Deterministic time = 2166.52 ticks  (689.98 ticks/sec)

CPLEX> Incumbent solution written to file 'C:\Users\llavin\Desktop\test919\logs\tmplyf86pok.cplex.sol'.
CPLEX> NOTE: no warmstart specified for MIP iteration, default behavior is true
NOTE: resolving with all competitive generators using storage-only solution to warmstart
Solving...

Welcome to IBM(R) ILOG(R) CPLEX(R) Interactive Optimizer 12.9.0.0
  with Simplex, Mixed Integer & Barrier Optimizers
5725-A06 5725-A29 5724-Y48 5724-Y49 5724-Y54 5724-Y55 5655-Y21
Copyright IBM Corp. 1988, 2019.  All Rights Reserved.

Type 'help' for a list of available commands.
Type 'help' followed by a command name for more
information on commands.

CPLEX> Logfile 'cplex.log' closed.
Logfile 'C:\Users\llavin\Desktop\test919\logs\tmp0zmfylzf.cplex.log' open.
CPLEX> New value for parallel optimization mode: -1
CPLEX> New value for mixed integer optimality gap tolerance: 0.01
CPLEX> New value for integrality tolerance: 1e-09
CPLEX> New value for feasibility tolerance: 0.01
CPLEX> New value for deterministic time limit in ticks: 75000
CPLEX> Problem 'C:\Users\llavin\Desktop\test919\logs\tmpxljrbf8f.pyomo.lp' read.
Read time = 0.25 sec. (14.81 ticks)
CPLEX> MIP start file 'C:\Users\llavin\Desktop\test919\logs\tmpmkqpdq1x.cplex.mst' read.
CPLEX> Problem name         : C:\Users\llavin\Desktop\test919\logs\tmpxljrbf8f.pyomo.lp
Objective sense      : Maximize
Variables            :   54525  [Nneg: 1,  Box: 22720,  Free: 4464,
                                 Binary: 27340]
Objective nonzeros   :    9725
Linear constraints   :  123205  [Less: 41346,  Greater: 59096,  Equal: 22763]
  Nonzeros           :  291753
  RHS nonzeros       :   67491

Variables            : Min LB: -5000.000        Max UB: 1000000.       
Objective nonzeros   : Min   : 0.4083333        Max   : 2500.000       
Linear constraints   :
  Nonzeros           : Min   : 0.4083333        Max   : 1000000.       
  RHS nonzeros       : Min   : 0.4083333        Max   : 1000000.       
CPLEX> CPXPARAM_Parallel                                -1
CPXPARAM_Simplex_Tolerances_Feasibility          0.01
CPXPARAM_DetTimeLimit                            75000
CPXPARAM_MIP_Tolerances_MIPGap                   0.01
CPXPARAM_MIP_Tolerances_Integrality              1.0000000000000001e-09
Warning:  No solution found from 1 MIP starts.
Retaining values of one MIP start for possible repair.
Tried aggregator 3 times.
MIP Presolve eliminated 88649 rows and 19693 columns.
MIP Presolve added 3374 rows and 0 columns.
MIP Presolve modified 24874 coefficients.
Aggregator did 12981 substitutions.
Reduced MIP has 24949 rows, 21295 columns, and 71166 nonzeros.
Reduced MIP has 8420 binaries, 0 generals, 0 SOSs, and 0 indicators.
Presolve time = 0.28 sec. (173.89 ticks)
Probing fixed 394 vars, tightened 2890 bounds.
Probing time = 1.23 sec. (906.85 ticks)
Tried aggregator 2 times.
MIP Presolve eliminated 886 rows and 791 columns.
MIP Presolve modified 2217 coefficients.
Aggregator did 41 substitutions.
Reduced MIP has 24022 rows, 20463 columns, and 68470 nonzeros.
Reduced MIP has 8025 binaries, 0 generals, 0 SOSs, and 0 indicators.
Presolve time = 0.09 sec. (69.15 ticks)
Probing time = 0.05 sec. (15.88 ticks)
Clique table members: 6454.
MIP emphasis: balance optimality and feasibility.
MIP search method: dynamic search.
Parallel mode: opportunistic, using up to 32 threads.
Root relaxation solution time = 0.34 sec. (264.62 ticks)

        Nodes                                         Cuts/
   Node  Left     Objective  IInf  Best Integer    Best Bound    ItCnt     Gap

      0     0    98344.9043  1713                  98344.9043     6537         
      0     0    95221.1842   645                   Cuts: 579     6816         
      0     0    94866.7869   564                   Cuts: 197     6894         
      0     0    94826.6713   525                    Cuts: 95     6952         
      0     0    94826.6713   499                    Cuts: 67     7004         
      0     0    94826.6713   467                    Cuts: 64     7042         
      0     0    94787.0189   452                    Cuts: 46     7070         
      0     0    94787.0189   443                    Cuts: 42     7079         
      0     0    94787.0189   435                    Cuts: 22     7087         
      0     0    92121.1477   417                    Cuts: 23     7141         
      0     0    91187.8593   414                    Cuts: 28     7173         
      0     0    91187.8593   414                    Cuts: 24     7175         
      0     0    91143.0772   413                    Cuts: 22     7177         
      0     0    90652.5634   407                    Cuts: 26     7186         
      0     0    90652.5634   407                    Cuts: 27     7186         
Repair heuristic found nothing.
      0    27    infeasible                          Cuts: 37     8628         
Elapsed time = 12.48 sec. (6928.52 ticks, tree = 0.02 MB, solutions = 0)
    445    67    infeasible                        56209.7056    10211         
    827   407    28174.8859   350                  56209.7056    16064         
   1517   683    20965.9332   345                  56209.7056    22369         
   2276  1139     9355.1026   293                  56209.7056    33329         
   2865  1072   -31445.1389   298                  56209.7056    33156         
   3577  1691    16512.1179   357                  56209.7056    43112         
   4565  1911    -1886.3812   285                  56209.7056    44520         
   5706  3035    -2549.3431   311                  56209.7056    47764         
   6780  3509    -1886.3812   276                  56209.7056    48032         
*  9415+ 1348                        14346.2342    56209.7056           291.81%
Elapsed time = 28.39 sec. (9771.78 ticks, tree = 21.75 MB, solutions = 4)
* 11312  1281      integral     0    14346.2342    14346.2342    67798    0.00%

Clique cuts applied:  13
Cover cuts applied:  65
Implied bound cuts applied:  275
Flow cuts applied:  1202
Mixed integer rounding cuts applied:  2208
Gomory fractional cuts applied:  127

Root node processing (before b&c):
  Real time             =   10.50 sec. (6907.60 ticks)
Parallel b&c, 32 threads:
  Real time             =   24.55 sec. (6500.17 ticks)
  Sync time (average)   =    1.18 sec.
  Wait time (average)   =    0.00 sec.
                          ------------
Total (root+branch&cut) =   35.05 sec. (13407.77 ticks)

Solution pool: 4 solutions saved.

MIP - Integer optimal solution:  Objective =  1.4346234233e+04
Solution time =   35.08 sec.  Iterations = 67798  Nodes = 11312
Deterministic time = 13407.93 ticks  (382.23 ticks/sec)

CPLEX> Incumbent solution written to file 'C:\Users\llavin\Desktop\test919\logs\tmp2zxg52ub.cplex.sol'.
CPLEX> Exporting results... 
